solution status: optimal solution found
objective value:                     199626.425204085
d11(0,0)                                            1 	(obj:0)
d11(1,1)                                            1 	(obj:0)
d11(1,2)                                            1 	(obj:0)
d11(2,4)                                            1 	(obj:0)
d11(2,5)                                            1 	(obj:0)
d11(2,7)                                            1 	(obj:0)
d11(2,8)                                            1 	(obj:0)
d11(2,9)                                            1 	(obj:0)
d11(2,10)                                           1 	(obj:0)
d11(2,11)                                           1 	(obj:0)
d11(2,12)                                           1 	(obj:0)
d11(3,13)                                           1 	(obj:0)
d11(3,14)                                           1 	(obj:0)
d11(3,15)                                           1 	(obj:0)
d11(3,16)                                           1 	(obj:0)
d11(3,17)                                           1 	(obj:0)
d11(3,19)                                           1 	(obj:0)
d11(3,20)                                           1 	(obj:0)
d11(3,21)                                           1 	(obj:0)
d11(3,22)                                           1 	(obj:0)
d11(3,23)                                           1 	(obj:0)
d11(3,24)                                           1 	(obj:0)
d11(3,25)                                           1 	(obj:0)
d11(3,26)                                           1 	(obj:0)
d11(3,27)                                           1 	(obj:0)
d11(3,28)                                           1 	(obj:0)
d11(3,29)                                           1 	(obj:0)
d11(3,30)                                           1 	(obj:0)
d11(3,31)                                           1 	(obj:0)
d11(3,32)                                           1 	(obj:0)
d11(3,33)                                           1 	(obj:0)
d11(3,34)                                           1 	(obj:0)
d11(3,35)                                           1 	(obj:0)
d11(3,36)                                           1 	(obj:0)
d11(3,37)                                           1 	(obj:0)
d11(3,38)                                           1 	(obj:0)
d11(3,39)                                           1 	(obj:0)
d11(4,40)                                           1 	(obj:0)
d11(4,41)                                           1 	(obj:0)
d11(4,42)                                           1 	(obj:0)
d11(4,43)                                           1 	(obj:0)
d11(4,44)                                           1 	(obj:0)
d11(4,45)                                           1 	(obj:0)
d11(4,46)                                           1 	(obj:0)
d11(4,47)                                           1 	(obj:0)
d11(4,48)                                           1 	(obj:0)
d11(4,49)                                           1 	(obj:0)
d11(4,50)                                           1 	(obj:0)
d11(4,51)                                           1 	(obj:0)
d11(4,52)                                           1 	(obj:0)
d11(4,53)                                           1 	(obj:0)
d11(4,54)                                           1 	(obj:0)
d11(4,55)                                           1 	(obj:0)
d11(4,56)                                           1 	(obj:0)
d11(4,57)                                           1 	(obj:0)
d11(4,58)                                           1 	(obj:0)
d11(4,59)                                           1 	(obj:0)
d11(4,60)                                           1 	(obj:0)
d11(4,61)                                           1 	(obj:0)
d11(4,62)                                           1 	(obj:0)
d11(4,63)                                           1 	(obj:0)
d11(4,64)                                           1 	(obj:0)
d11(4,65)                                           1 	(obj:0)
d11(4,66)                                           1 	(obj:0)
d11(4,67)                                           1 	(obj:0)
d11(4,68)                                           1 	(obj:0)
d11(4,69)                                           1 	(obj:0)
d11(4,70)                                           1 	(obj:0)
d11(4,71)                                           1 	(obj:0)
d11(4,72)                                           1 	(obj:0)
d11(4,73)                                           1 	(obj:0)
d11(4,74)                                           1 	(obj:0)
d11(4,75)                                           1 	(obj:0)
d11(4,76)                                           1 	(obj:0)
d11(4,77)                                           1 	(obj:0)
d11(4,78)                                           1 	(obj:0)
d11(4,79)                                           1 	(obj:0)
d11(4,80)                                           1 	(obj:0)
d11(4,81)                                           1 	(obj:0)
d11(4,82)                                           1 	(obj:0)
d11(4,83)                                           1 	(obj:0)
d11(4,84)                                           1 	(obj:0)
d11(4,85)                                           1 	(obj:0)
d11(4,86)                                           1 	(obj:0)
d11(4,87)                                           1 	(obj:0)
d11(4,88)                                           1 	(obj:0)
d11(4,89)                                           1 	(obj:0)
d11(4,90)                                           1 	(obj:0)
d11(4,91)                                           1 	(obj:0)
d11(4,92)                                           1 	(obj:0)
d11(4,93)                                           1 	(obj:0)
d11(4,94)                                           1 	(obj:0)
d11(4,95)                                           1 	(obj:0)
d11(4,96)                                           1 	(obj:0)
d11(4,97)                                           1 	(obj:0)
d11(4,98)                                           1 	(obj:0)
d11(4,99)                                           1 	(obj:0)
d11(4,100)                                          1 	(obj:0)
d11(4,101)                                          1 	(obj:0)
d11(4,102)                                          1 	(obj:0)
d11(4,103)                                          1 	(obj:0)
d11(4,104)                                          1 	(obj:0)
d11(4,105)                                          1 	(obj:0)
d11(4,106)                                          1 	(obj:0)
d11(4,107)                                          1 	(obj:0)
d11(4,108)                                          1 	(obj:0)
d11(4,109)                                          1 	(obj:0)
d11(4,110)                                          1 	(obj:0)
d11(4,111)                                          1 	(obj:0)
d11(4,112)                                          1 	(obj:0)
d11(4,113)                                          1 	(obj:0)
d11(4,114)                                          1 	(obj:0)
d11(4,115)                                          1 	(obj:0)
d11(4,116)                                          1 	(obj:0)
d11(4,117)                                          1 	(obj:0)
d11(4,118)                                          1 	(obj:0)
d11(4,119)                                          1 	(obj:0)
d11(4,120)                                          1 	(obj:0)
d21(4,40)                                           1 	(obj:0)
d21(4,41)                                           1 	(obj:0)
d21(4,42)                                           1 	(obj:0)
d21(4,43)                                           1 	(obj:0)
d21(4,44)                                           1 	(obj:0)
d21(4,45)                                           1 	(obj:0)
d21(4,46)                                           1 	(obj:0)
d21(4,47)                                           1 	(obj:0)
d21(4,49)                                           1 	(obj:0)
d21(4,50)                                           1 	(obj:0)
d21(4,51)                                           1 	(obj:0)
d21(4,52)                                           1 	(obj:0)
d21(4,53)                                           1 	(obj:0)
d21(4,54)                                           1 	(obj:0)
d21(4,55)                                           1 	(obj:0)
d21(4,58)                                           1 	(obj:0)
d21(4,59)                                           1 	(obj:0)
d21(4,61)                                           1 	(obj:0)
d21(4,67)                                           1 	(obj:0)
d21(4,68)                                           1 	(obj:0)
d21(4,69)                                           1 	(obj:0)
d21(4,70)                                           1 	(obj:0)
d21(4,71)                                           1 	(obj:0)
d21(4,73)                                           1 	(obj:0)
d21(4,76)                                           1 	(obj:0)
d21(4,77)                                           1 	(obj:0)
d21(4,79)                                           1 	(obj:0)
d21(4,80)                                           1 	(obj:0)
d21(4,82)                                           1 	(obj:0)
d21(4,85)                                           1 	(obj:0)
d21(4,86)                                           1 	(obj:0)
d21(4,94)                                           1 	(obj:0)
d21(4,95)                                           1 	(obj:0)
d21(4,97)                                           1 	(obj:0)
d21(4,98)                                           1 	(obj:0)
d21(4,103)                                          1 	(obj:0)
d21(4,106)                                          1 	(obj:0)
STE(1,1)                             10826.7817933333 	(obj:0)
STE(0,0)                                        14175 	(obj:0)
STE(1,2)                             11823.5477966666 	(obj:0)
STE(1,3)                                        13041 	(obj:0)
STE(2,4)                             7478.56358666662 	(obj:0)
STE(2,5)                             8475.32959000001 	(obj:0)
STE(2,6)                             9692.78179333328 	(obj:0)
STE(2,7)                             8475.32958999995 	(obj:0)
STE(2,8)                             9472.09559333324 	(obj:0)
STE(2,9)                             10689.5477966666 	(obj:0)
STE(2,10)                            9692.78179333333 	(obj:0)
STE(2,11)                            10689.5477966666 	(obj:0)
STE(2,12)                                       11907 	(obj:0)
STE(3,13)                             4130.3453800006 	(obj:0)
STE(3,14)                             5127.1113833339 	(obj:0)
STE(3,15)                            6344.56358666727 	(obj:0)
STE(3,16)                            5127.11138333399 	(obj:0)
STE(3,17)                            6123.87738666729 	(obj:0)
STE(3,18)                            7341.32959000001 	(obj:0)
STE(3,19)                            6344.56358666727 	(obj:0)
STE(3,20)                            7341.32959000056 	(obj:0)
STE(3,21)                            8558.78179333328 	(obj:0)
STE(3,22)                            5127.11138333394 	(obj:0)
STE(3,23)                            6123.87738666723 	(obj:0)
STE(3,24)                            7341.32959000061 	(obj:0)
STE(3,25)                            6123.87738666723 	(obj:0)
STE(3,26)                            7120.64339000052 	(obj:0)
STE(3,27)                            8338.09559333386 	(obj:0)
STE(3,28)                            7341.32959000061 	(obj:0)
STE(3,29)                             8338.0955933339 	(obj:0)
STE(3,30)                             9555.5477966673 	(obj:0)
STE(3,31)                            6344.56358666732 	(obj:0)
STE(3,32)                            7341.32959000061 	(obj:0)
STE(3,33)                            8558.78179333399 	(obj:0)
STE(3,34)                            7341.32959000061 	(obj:0)
STE(3,35)                             8338.0955933339 	(obj:0)
STE(3,36)                             9555.5477966673 	(obj:0)
STE(3,37)                            8558.78179333399 	(obj:0)
STE(3,38)                            9555.54779666728 	(obj:0)
STE(3,39)                            10773.0000000006 	(obj:0)
STE(4,40)                            -1372.7503133333 	(obj:0)
STE(4,41)                           -375.984310000006 	(obj:0)
STE(4,42)                            841.467893333372 	(obj:0)
STE(4,43)                           -375.984310000006 	(obj:0)
STE(4,44)                            620.781693333285 	(obj:0)
STE(4,45)                            1838.23389666666 	(obj:0)
STE(4,46)                            841.467893333372 	(obj:0)
STE(4,47)                            1838.23389666666 	(obj:0)
STE(4,48)                            3055.68610000004 	(obj:0)
STE(4,49)                           -375.984309999907 	(obj:0)
STE(4,50)                            620.781693333384 	(obj:0)
STE(4,51)                            1838.23389666676 	(obj:0)
STE(4,52)                            620.781693333385 	(obj:0)
STE(4,53)                            1617.54769666668 	(obj:0)
STE(4,54)                            2834.99990000005 	(obj:0)
STE(4,55)                            1838.23389666611 	(obj:0)
STE(4,56)                             2834.9998999994 	(obj:0)
STE(4,57)                            4052.45210333281 	(obj:0)
STE(4,58)                            841.467893333372 	(obj:0)
STE(4,59)                            1838.23389666666 	(obj:0)
STE(4,60)                            3055.68610000004 	(obj:0)
STE(4,61)                            1838.23389666666 	(obj:0)
STE(4,62)                            2834.99989999995 	(obj:0)
STE(4,63)                            4052.45210333333 	(obj:0)
STE(4,64)                            3055.68609999938 	(obj:0)
STE(4,65)                            4052.45210333267 	(obj:0)
STE(4,66)                            5269.90430666605 	(obj:0)
STE(4,67)                            -375.98430999996 	(obj:0)
STE(4,68)                            620.781693333331 	(obj:0)
STE(4,69)                            1838.23389666671 	(obj:0)
STE(4,70)                            620.781693333332 	(obj:0)
STE(4,71)                            1617.54769666662 	(obj:0)
STE(4,72)                            2834.99990000004 	(obj:0)
STE(4,73)                            1838.23389666671 	(obj:0)
STE(4,74)                                   2834.9999 	(obj:0)
STE(4,75)                            4052.45210333338 	(obj:0)
STE(4,76)                            620.781693333332 	(obj:0)
STE(4,77)                            1617.54769666662 	(obj:0)
STE(4,78)                                   2834.9999 	(obj:0)
STE(4,79)                            1617.54769666662 	(obj:0)
STE(4,80)                            2614.31369999991 	(obj:0)
STE(4,81)                            3831.76590333329 	(obj:0)
STE(4,82)                            2834.99989999996 	(obj:0)
STE(4,83)                            3831.76590333325 	(obj:0)
STE(4,84)                            5049.21810666663 	(obj:0)
STE(4,85)                            1838.23389666671 	(obj:0)
STE(4,86)                                   2834.9999 	(obj:0)
STE(4,87)                            4052.45210333338 	(obj:0)
STE(4,88)                                   2834.9999 	(obj:0)
STE(4,89)                            3831.76590333329 	(obj:0)
STE(4,90)                            5049.21810666667 	(obj:0)
STE(4,91)                             4052.4521033334 	(obj:0)
STE(4,92)                            5049.21810666669 	(obj:0)
STE(4,93)                            6266.67031000007 	(obj:0)
STE(4,94)                            841.467893333419 	(obj:0)
STE(4,95)                            1838.23389666671 	(obj:0)
STE(4,96)                            3055.68610000009 	(obj:0)
STE(4,97)                            1838.23389666671 	(obj:0)
STE(4,98)                                   2834.9999 	(obj:0)
STE(4,99)                            4052.45210333338 	(obj:0)
STE(4,100)                           3055.68610000009 	(obj:0)
STE(4,101)                           4052.45210333338 	(obj:0)
STE(4,102)                           5269.90430666676 	(obj:0)
STE(4,103)                           1838.23389666671 	(obj:0)
STE(4,104)                                  2834.9999 	(obj:0)
STE(4,105)                           4052.45210333338 	(obj:0)
STE(4,106)                                  2834.9999 	(obj:0)
STE(4,107)                           3831.76590333329 	(obj:0)
STE(4,108)                           5049.21810666667 	(obj:0)
STE(4,109)                            4052.4521033334 	(obj:0)
STE(4,110)                           5049.21810666669 	(obj:0)
STE(4,111)                           6266.67031000007 	(obj:0)
STE(4,112)                           3055.68610000009 	(obj:0)
STE(4,113)                           4052.45210333338 	(obj:0)
STE(4,114)                           5269.90430666676 	(obj:0)
STE(4,115)                           4052.45210333338 	(obj:0)
STE(4,116)                           5049.21810666667 	(obj:0)
STE(4,117)                           6266.67031000007 	(obj:0)
STE(4,118)                           5269.90430666673 	(obj:0)
STE(4,119)                           6266.67031000002 	(obj:0)
STE(4,120)                            7484.1225133334 	(obj:0)
y1(4,100)                            3932.18612400051 	(obj:0)
y1(4,101)                            3035.09672100055 	(obj:0)
y1(4,102)                            1939.38973800051 	(obj:0)
y1(4,103)                            3932.18612400051 	(obj:0)
y1(4,104)                            3035.09672100055 	(obj:0)
y1(4,105)                            1939.38973800051 	(obj:0)
y1(4,106)                            3932.18612400051 	(obj:0)
y1(4,107)                            3035.09672100055 	(obj:0)
y1(4,108)                            1939.38973800051 	(obj:0)
y1(4,109)                            3932.18612400051 	(obj:0)
y1(4,110)                            3035.09672100055 	(obj:0)
y1(4,111)                            1939.38973800051 	(obj:0)
y1(4,112)                            3932.18612400051 	(obj:0)
y1(4,113)                            3035.09672100055 	(obj:0)
y1(4,114)                            1939.38973800051 	(obj:0)
y1(4,115)                            3932.18612400051 	(obj:0)
y1(4,116)                            3035.09672100055 	(obj:0)
y1(4,117)                            1939.38973800049 	(obj:0)
y1(4,118)                            3932.18612400051 	(obj:0)
y1(4,119)                            3035.09672100055 	(obj:0)
y1(4,120)                            1939.38973800051 	(obj:0)
AVE(3)                                3399.3204933139 	(obj:0)
AVE(4)                               3353.21046544222 	(obj:0)
WG(3)                                 3399.3204933139 	(obj:10)
WG(4)                                3353.21046544222 	(obj:10)
BG(1)                                4495.91835000003 	(obj:10)
BG(2)                                4495.91834999995 	(obj:10)
BG(3)                                1096.59785668552 	(obj:10)
BG(4)                                3121.67700496649 	(obj:10)
WB(1)                                3134.60043707461 	(obj:0)
AVE(1)                               3134.60043707458 	(obj:0)
WB(2)                                3326.45170866638 	(obj:0)
AVE(2)                               3326.45170866643 	(obj:0)
y1(1,1)                              1992.79638600004 	(obj:0)
y1(1,2)                              1095.70698300004 	(obj:0)
y1(2,4)                                   1992.796386 	(obj:0)
y1(2,5)                              1095.70698299995 	(obj:0)
y1(2,7)                                   1992.796386 	(obj:0)
y1(2,8)                              1095.70698300004 	(obj:0)
y1(2,10)                                  1992.796386 	(obj:0)
y1(2,11)                             1095.70698300004 	(obj:0)
y1(3,13)                             1992.79638599941 	(obj:0)
y1(3,14)                             1095.70698299945 	(obj:0)
y1(3,16)                             1992.79638599941 	(obj:0)
y1(3,17)                             1095.70698299945 	(obj:0)
y1(3,19)                             1992.79638599941 	(obj:0)
y1(3,20)                             1095.70698299945 	(obj:0)
y1(3,22)                             1992.79638599941 	(obj:0)
y1(3,23)                             1095.70698299945 	(obj:0)
y1(3,25)                             1992.79638599941 	(obj:0)
y1(3,26)                             1095.70698299945 	(obj:0)
y1(3,28)                             1992.79638599941 	(obj:0)
y1(3,29)                             1095.70698299945 	(obj:0)
y1(3,31)                             1992.79638599941 	(obj:0)
y1(3,32)                             1095.70698299945 	(obj:0)
y1(3,34)                             1992.79638599941 	(obj:0)
y1(3,35)                             1095.70698299945 	(obj:0)
y1(3,37)                             1992.79638599941 	(obj:0)
y1(3,38)                             1095.70698299944 	(obj:0)
y1(4,40)                             3932.18612400051 	(obj:0)
y1(4,41)                             3035.09672100055 	(obj:0)
y1(4,42)                             1939.38973800051 	(obj:0)
y1(4,43)                             3932.18612400051 	(obj:0)
y1(4,44)                             3035.09672100055 	(obj:0)
y1(4,45)                             1939.38973800051 	(obj:0)
y1(4,46)                             3932.18612400051 	(obj:0)
y1(4,47)                             3035.09672100055 	(obj:0)
y1(4,48)                             1939.38973800051 	(obj:0)
y1(4,49)                             3932.18612400051 	(obj:0)
y1(4,50)                             3035.09672100055 	(obj:0)
y1(4,51)                             1939.38973800051 	(obj:0)
y1(4,52)                             3932.18612400051 	(obj:0)
y1(4,53)                             3035.09672100055 	(obj:0)
y1(4,54)                             1939.38973800051 	(obj:0)
y1(4,55)                             3932.18612400051 	(obj:0)
y1(4,56)                             3035.09672100055 	(obj:0)
y1(4,57)                             1939.38973800047 	(obj:0)
y1(4,58)                             3932.18612400051 	(obj:0)
y1(4,59)                             3035.09672100055 	(obj:0)
y1(4,60)                             1939.38973800051 	(obj:0)
y1(4,61)                             3932.18612400051 	(obj:0)
y1(4,62)                             3035.09672100055 	(obj:0)
y1(4,63)                             1939.38973800051 	(obj:0)
y1(4,64)                             3932.18612400051 	(obj:0)
y1(4,65)                             3035.09672100055 	(obj:0)
y1(4,66)                             1939.38973800051 	(obj:0)
y1(4,67)                             3932.18612400051 	(obj:0)
y1(4,68)                             3035.09672100055 	(obj:0)
y1(4,69)                             1939.38973800051 	(obj:0)
y1(4,70)                             3932.18612400051 	(obj:0)
y1(4,71)                             3035.09672100055 	(obj:0)
y1(4,72)                             1939.38973800048 	(obj:0)
y1(4,73)                             3932.18612400051 	(obj:0)
y1(4,74)                             3035.09672100055 	(obj:0)
y1(4,75)                             1939.38973800051 	(obj:0)
y1(4,76)                             3932.18612400051 	(obj:0)
y1(4,77)                             3035.09672100055 	(obj:0)
y1(4,78)                             1939.38973800051 	(obj:0)
y1(4,79)                             3932.18612400051 	(obj:0)
y1(4,80)                             3035.09672100055 	(obj:0)
y1(4,81)                             1939.38973800051 	(obj:0)
y1(4,82)                             3932.18612400051 	(obj:0)
y1(4,83)                             3035.09672100055 	(obj:0)
y1(4,84)                             1939.38973800051 	(obj:0)
y1(4,85)                             3932.18612400051 	(obj:0)
y1(4,86)                             3035.09672100055 	(obj:0)
y1(4,87)                             1939.38973800051 	(obj:0)
y1(4,88)                             3932.18612400051 	(obj:0)
y1(4,89)                             3035.09672100055 	(obj:0)
y1(4,90)                             1939.38973800051 	(obj:0)
y1(4,91)                             3932.18612400051 	(obj:0)
y1(4,92)                             3035.09672100055 	(obj:0)
y1(4,93)                             1939.38973800051 	(obj:0)
y1(4,94)                             3932.18612400051 	(obj:0)
y1(4,95)                             3035.09672100055 	(obj:0)
y1(4,96)                             1939.38973800051 	(obj:0)
y1(4,97)                             3932.18612400051 	(obj:0)
y1(4,98)                             3035.09672100055 	(obj:0)
y1(4,99)                             1939.38973800051 	(obj:0)
